c Standarized MaxSat Instance
c{
c "sha1sum": "0e3bfc41458b0b9d8cb02c4f669db5b3c783df7f",
c "nvars": 104,
c "ncls": 1054,
c "total_lits": 2746,
c "nhards": 950,
c "nhard_nlits": 2642,
c "nhard_len_stats":
c    { "min": 2,
c      "max": 26,
c      "ave": 2.7811,
c      "stddev": 2.8871 },
c "nsofts": 104,
c "nsoft_nlits": 104,
c "nsoft_len_stats":
c    { "min": 1,
c      "max": 1,
c      "ave": 1.0000,
c      "stddev": 0.0000 },
c "nsoft_wts": 1,
c "soft_wt_stats":
c    { "min": 1,
c      "max": 1,
c      "ave": 1.0000,
c      "stddev": 0.0000 }
c}
c------------------------------------------------------------
c Triangle-Driven Community Detection in Large Graphs
c jabbour@cril.fr, badran.raddaoui@gmail.com, sais@cril.fr
c
h -1 -4 0
h -1 -6 0
h -1 -7 0
h -1 -2 0
h 1 4 6 7 2 0
h -2 -4 0
h -2 -6 0
h -2 -7 0
h -2 -5 0
h -2 -1 0
h -2 -3 0
h 2 4 6 7 5 1 3 0
h -3 -5 0
h -3 -6 0
h -3 -2 0
h -3 -8 0
h 3 5 6 2 8 0
h -4 -1 0
h -4 -6 0
h -4 -2 0
h -4 -10 0
h -4 -11 0
h -4 -12 0
h -4 -13 0
h -4 -14 0
h -4 -15 0
h -4 -21 0
h -4 -22 0
h -4 -23 0
h -4 -24 0
h -4 -25 0
h -4 -27 0
h -4 -28 0
h -4 -9 0
h -4 -16 0
h -4 -17 0
h -4 -20 0
h -4 -18 0
h -4 -19 0
h -4 -26 0
h 4 1 6 2 10 11 12 13 14 15 21 22 23 24 25 27 28 9 16 17 20 18 19 26 0
h -5 -3 0
h -5 -6 0
h -5 -7 0
h -5 -2 0
h -5 -30 0
h -5 -32 0
h -5 -31 0
h 5 3 6 7 2 30 32 31 0
h -6 -1 0
h -6 -3 0
h -6 -4 0
h -6 -5 0
h -6 -7 0
h -6 -2 0
h -6 -8 0
h 6 1 3 4 5 7 2 8 0
h -7 -1 0
h -7 -5 0
h -7 -6 0
h -7 -2 0
h -7 -30 0
h -7 -8 0
h -7 -13 0
h -7 -11 0
h -7 -19 0
h -7 -26 0
h -7 -23 0
h 7 1 5 6 2 30 8 13 11 19 26 23 0
h -8 -6 0
h -8 -3 0
h -8 -7 0
h -8 -58 0
h -8 -15 0
h -8 -31 0
h -8 -85 0
h 8 6 3 7 58 15 31 85 0
h -9 -10 0
h -9 -11 0
h -9 -12 0
h -9 -13 0
h -9 -14 0
h -9 -15 0
h -9 -21 0
h -9 -22 0
h -9 -23 0
h -9 -24 0
h -9 -25 0
h -9 -27 0
h -9 -28 0
h -9 -4 0
h -9 -42 0
h -9 -46 0
h -9 -34 0
h -9 -35 0
h -9 -38 0
h -9 -33 0
h -9 -41 0
h -9 -45 0
h -9 -47 0
h -9 -43 0
h -9 -44 0
h 9 10 11 12 13 14 15 21 22 23 24 25 27 28 4 42 46 34 35 38 33 41 45 47 43 44 0
h -10 -9 0
h -10 -12 0
h -10 -13 0
h -10 -15 0
h -10 -21 0
h -10 -25 0
h -10 -28 0
h -10 -4 0
h -10 -42 0
h -10 -46 0
h -10 -48 0
h -10 -51 0
h -10 -49 0
h -10 -50 0
h -10 -53 0
h -10 -52 0
h 10 9 12 13 15 21 25 28 4 42 46 48 51 49 50 53 52 0
h -11 -9 0
h -11 -12 0
h -11 -13 0
h -11 -16 0
h -11 -17 0
h -11 -20 0
h -11 -22 0
h -11 -4 0
h -11 -34 0
h -11 -35 0
h -11 -38 0
h -11 -7 0
h -11 -39 0
h -11 -40 0
h -11 -56 0
h 11 9 12 13 16 17 20 22 4 34 35 38 7 39 40 56 0
h -12 -9 0
h -12 -10 0
h -12 -11 0
h -12 -13 0
h -12 -14 0
h -12 -15 0
h -12 -18 0
h -12 -21 0
h -12 -22 0
h -12 -23 0
h -12 -27 0
h -12 -28 0
h -12 -4 0
h -12 -46 0
h -12 -48 0
h -12 -51 0
h -12 -30 0
h 12 9 10 11 13 14 15 18 21 22 23 27 28 4 46 48 51 30 0
h -13 -9 0
h -13 -10 0
h -13 -11 0
h -13 -12 0
h -13 -14 0
h -13 -15 0
h -13 -16 0
h -13 -18 0
h -13 -19 0
h -13 -24 0
h -13 -25 0
h -13 -4 0
h -13 -33 0
h -13 -34 0
h -13 -41 0
h -13 -42 0
h -13 -45 0
h -13 -47 0
h -13 -48 0
h -13 -7 0
h -13 -39 0
h -13 -40 0
h -13 -56 0
h -13 -55 0
h -13 -37 0
h 13 9 10 11 12 14 15 16 18 19 24 25 4 33 34 41 42 45 47 48 7 39 40 56 55 37 0
h -14 -9 0
h -14 -12 0
h -14 -13 0
h -14 -18 0
h -14 -4 0
h -14 -33 0
h -14 -41 0
h -14 -43 0
h -14 -44 0
h -14 -45 0
h -14 -30 0
h -14 -48 0
h 14 9 12 13 18 4 33 41 43 44 45 30 48 0
h -15 -9 0
h -15 -10 0
h -15 -12 0
h -15 -13 0
h -15 -26 0
h -15 -27 0
h -15 -4 0
h -15 -58 0
h -15 -8 0
h 15 9 10 12 13 26 27 4 58 8 0
h -16 -11 0
h -16 -13 0
h -16 -17 0
h -16 -4 0
h -16 -56 0
h 16 11 13 17 4 56 0
h -17 -11 0
h -17 -16 0
h -17 -4 0
h 17 11 16 4 0
h -18 -12 0
h -18 -13 0
h -18 -14 0
h -18 -4 0
h -18 -48 0
h 18 12 13 14 4 48 0
h -19 -13 0
h -19 -4 0
h -19 -7 0
h 19 13 4 7 0
h -20 -11 0
h -20 -4 0
h -20 -56 0
h 20 11 4 56 0
h -21 -9 0
h -21 -10 0
h -21 -12 0
h -21 -25 0
h -21 -4 0
h -21 -41 0
h -21 -49 0
h -21 -50 0
h -21 -54 0
h -21 -57 0
h 21 9 10 12 25 4 41 49 50 54 57 0
h -22 -9 0
h -22 -11 0
h -22 -12 0
h -22 -24 0
h -22 -4 0
h 22 9 11 12 24 4 0
h -23 -9 0
h -23 -12 0
h -23 -26 0
h -23 -4 0
h -23 -41 0
h -23 -7 0
h 23 9 12 26 4 41 7 0
h -24 -9 0
h -24 -13 0
h -24 -22 0
h -24 -28 0
h -24 -4 0
h -24 -33 0
h -24 -34 0
h -24 -48 0
h -24 -55 0
h 24 9 13 22 28 4 33 34 48 55 0
h -25 -9 0
h -25 -10 0
h -25 -13 0
h -25 -21 0
h -25 -27 0
h -25 -4 0
h -25 -41 0
h -25 -48 0
h -25 -54 0
h 25 9 10 13 21 27 4 41 48 54 0
h -26 -15 0
h -26 -23 0
h -26 -4 0
h -26 -7 0
h -26 -41 0
h 26 15 23 4 7 41 0
h -27 -9 0
h -27 -12 0
h -27 -15 0
h -27 -25 0
h -27 -4 0
h -27 -41 0
h -27 -46 0
h -27 -48 0
h -27 -54 0
h 27 9 12 15 25 4 41 46 48 54 0
h -28 -9 0
h -28 -10 0
h -28 -12 0
h -28 -24 0
h -28 -4 0
h -28 -41 0
h -28 -42 0
h -28 -48 0
h -28 -55 0
h 28 9 10 12 24 4 41 42 48 55 0
h -30 -7 0
h -30 -5 0
h -30 -14 0
h -30 -12 0
h 30 7 5 14 12 0
h -31 -32 0
h -31 -58 0
h -31 -5 0
h -31 -73 0
h -31 -74 0
h -31 -75 0
h -31 -76 0
h -31 -77 0
h -31 -82 0
h -31 -8 0
h -31 -67 0
h -31 -70 0
h -31 -80 0
h -31 -84 0
h -31 -86 0
h -31 -93 0
h -31 -99 0
h -31 -66 0
h -31 -83 0
h -31 -79 0
h 31 32 58 5 73 74 75 76 77 82 8 67 70 80 84 86 93 99 66 83 79 0
h -32 -31 0
h -32 -5 0
h -32 -73 0
h -32 -74 0
h -32 -75 0
h -32 -76 0
h -32 -77 0
h -32 -82 0
h -32 -78 0
h -32 -91 0
h -32 -50 0
h 32 31 5 73 74 75 76 77 82 78 91 50 0
h -33 -13 0
h -33 -14 0
h -33 -24 0
h -33 -34 0
h -33 -9 0
h 33 13 14 24 34 9 0
h -34 -9 0
h -34 -13 0
h -34 -24 0
h -34 -11 0
h -34 -33 0
h -34 -38 0
h -34 -39 0
h -34 -40 0
h -34 -48 0
h 34 9 13 24 11 33 38 39 40 48 0
h -35 -37 0
h -35 -38 0
h -35 -39 0
h -35 -40 0
h -35 -11 0
h -35 -41 0
h -35 -44 0
h -35 -45 0
h -35 -9 0
h -35 -36 0
h 35 37 38 39 40 11 41 44 45 9 36 0
h -36 -37 0
h -36 -38 0
h -36 -39 0
h -36 -40 0
h -36 -35 0
h 36 37 38 39 40 35 0
h -37 -35 0
h -37 -36 0
h -37 -42 0
h -37 -48 0
h -37 -13 0
h 37 35 36 42 48 13 0
h -38 -35 0
h -38 -39 0
h -38 -11 0
h -38 -34 0
h -38 -9 0
h -38 -36 0
h -38 -48 0
h 38 35 39 11 34 9 36 48 0
h -39 -35 0
h -39 -38 0
h -39 -40 0
h -39 -13 0
h -39 -34 0
h -39 -36 0
h -39 -11 0
h 39 35 38 40 13 34 36 11 0
h -40 -35 0
h -40 -39 0
h -40 -13 0
h -40 -34 0
h -40 -36 0
h -40 -11 0
h -40 -41 0
h -40 -43 0
h 40 35 39 13 34 36 11 41 43 0
h -41 -13 0
h -41 -14 0
h -41 -21 0
h -41 -23 0
h -41 -25 0
h -41 -27 0
h -41 -28 0
h -41 -35 0
h -41 -42 0
h -41 -43 0
h -41 -45 0
h -41 -46 0
h -41 -9 0
h -41 -40 0
h -41 -48 0
h -41 -55 0
h -41 -54 0
h -41 -26 0
h 41 13 14 21 23 25 27 28 35 42 43 45 46 9 40 48 55 54 26 0
h -42 -10 0
h -42 -13 0
h -42 -28 0
h -42 -41 0
h -42 -9 0
h -42 -48 0
h -42 -55 0
h -42 -37 0
h 42 10 13 28 41 9 48 55 37 0
h -43 -14 0
h -43 -41 0
h -43 -44 0
h -43 -9 0
h -43 -40 0
h -43 -48 0
h 43 14 41 44 9 40 48 0
h -44 -14 0
h -44 -35 0
h -44 -43 0
h -44 -9 0
h 44 14 35 43 9 0
h -45 -13 0
h -45 -14 0
h -45 -35 0
h -45 -41 0
h -45 -9 0
h 45 13 14 35 41 9 0
h -46 -10 0
h -46 -12 0
h -46 -27 0
h -46 -41 0
h -46 -9 0
h -46 -48 0
h 46 10 12 27 41 9 48 0
h -47 -13 0
h -47 -9 0
h -47 -48 0
h 47 13 9 48 0
h -48 -12 0
h -48 -13 0
h -48 -25 0
h -48 -28 0
h -48 -42 0
h -48 -46 0
h -48 -14 0
h -48 -27 0
h -48 -43 0
h -48 -55 0
h -48 -10 0
h -48 -41 0
h -48 -37 0
h -48 -18 0
h -48 -24 0
h -48 -34 0
h -48 -47 0
h -48 -38 0
h 48 12 13 25 28 42 46 14 27 43 55 10 41 37 18 24 34 47 38 0
h -49 -21 0
h -49 -50 0
h -49 -10 0
h -49 -57 0
h 49 21 50 10 57 0
h -50 -21 0
h -50 -49 0
h -50 -10 0
h -50 -57 0
h -50 -76 0
h -50 -32 0
h -50 -72 0
h 50 21 49 10 57 76 32 72 0
h -51 -12 0
h -51 -10 0
h 51 12 10 0
h -52 -53 0
h -52 -10 0
h -52 -58 0
h -52 -64 0
h -52 -65 0
h -52 -69 0
h 52 53 10 58 64 65 69 0
h -53 -52 0
h -53 -10 0
h -53 -58 0
h -53 -64 0
h 53 52 10 58 64 0
h -54 -21 0
h -54 -25 0
h -54 -27 0
h -54 -41 0
h 54 21 25 27 41 0
h -55 -13 0
h -55 -28 0
h -55 -42 0
h -55 -48 0
h -55 -41 0
h -55 -24 0
h 55 13 28 42 48 41 24 0
h -56 -13 0
h -56 -16 0
h -56 -20 0
h -56 -11 0
h 56 13 16 20 11 0
h -57 -49 0
h -57 -50 0
h -57 -21 0
h 57 49 50 21 0
h -58 -8 0
h -58 -15 0
h -58 -31 0
h -58 -85 0
h -58 -77 0
h -58 -53 0
h -58 -64 0
h -58 -65 0
h -58 -69 0
h -58 -52 0
h -58 -68 0
h 58 8 15 31 85 77 53 64 65 69 52 68 0
h -59 -62 0
h -59 -63 0
h -59 -99 0
h -59 -60 0
h -59 -84 0
h -59 -86 0
h 59 62 63 99 60 84 86 0
h -60 -62 0
h -60 -63 0
h -60 -99 0
h -60 -59 0
h 60 62 63 99 59 0
h -62 -59 0
h -62 -63 0
h -62 -99 0
h -62 -60 0
h -62 -84 0
h -62 -100 0
h 62 59 63 99 60 84 100 0
h -63 -59 0
h -63 -62 0
h -63 -99 0
h -63 -60 0
h 63 59 62 99 60 0
h -64 -52 0
h -64 -53 0
h -64 -65 0
h -64 -68 0
h -64 -69 0
h -64 -58 0
h -64 -67 0
h -64 -70 0
h -64 -66 0
h 64 52 53 65 68 69 58 67 70 66 0
h -65 -58 0
h -65 -52 0
h -65 -67 0
h -65 -68 0
h -65 -69 0
h -65 -64 0
h -65 -85 0
h 65 58 52 67 68 69 64 85 0
h -66 -67 0
h -66 -70 0
h -66 -72 0
h -66 -73 0
h -66 -74 0
h -66 -76 0
h -66 -80 0
h -66 -84 0
h -66 -86 0
h -66 -93 0
h -66 -99 0
h -66 -64 0
h -66 -31 0
h -66 -90 0
h -66 -29 0
h -66 -85 0
h -66 -88 0
h -66 -89 0
h -66 -96 0
h -66 -97 0
h -66 -100 0
h 66 67 70 72 73 74 76 80 84 86 93 99 64 31 90 29 85 88 89 96 97 100 0
h -29 -72 0
h -29 -66 0
h 29 72 66 0
h -67 -65 0
h -67 -66 0
h -67 -64 0
h -67 -31 0
h -67 -104 0
h -67 -103 0
h 67 65 66 64 31 104 103 0
h -68 -58 0
h -68 -65 0
h -68 -64 0
h 68 58 65 64 0
h -69 -58 0
h -69 -52 0
h -69 -65 0
h -69 -64 0
h 69 58 52 65 64 0
h -70 -66 0
h -70 -64 0
h -70 -31 0
h -70 -72 0
h -70 -90 0
h -70 -75 0
h -70 -71 0
h 70 66 64 31 72 90 75 71 0
h -71 -72 0
h -71 -75 0
h -71 -70 0
h -71 -73 0
h -71 -74 0
h -71 -76 0
h -71 -78 0
h -71 -79 0
h -71 -80 0
h -71 -82 0
h -71 -83 0
h -71 -77 0
h 71 72 75 70 73 74 76 78 79 80 82 83 77 0
h -72 -70 0
h -72 -73 0
h -72 -74 0
h -72 -75 0
h -72 -76 0
h -72 -78 0
h -72 -79 0
h -72 -80 0
h -72 -82 0
h -72 -66 0
h -72 -29 0
h -72 -84 0
h -72 -85 0
h -72 -86 0
h -72 -88 0
h -72 -89 0
h -72 -90 0
h -72 -71 0
h -72 -92 0
h -72 -87 0
h -72 -91 0
h -72 -50 0
h 72 70 73 74 75 76 78 79 80 82 66 29 84 85 86 88 89 90 71 92 87 91 50 0
h -73 -72 0
h -73 -74 0
h -73 -75 0
h -73 -82 0
h -73 -83 0
h -73 -71 0
h -73 -66 0
h -73 -84 0
h -73 -86 0
h -73 -89 0
h -73 -92 0
h -73 -31 0
h -73 -93 0
h -73 -96 0
h -73 -97 0
h -73 -99 0
h -73 -100 0
h -73 -32 0
h -73 -98 0
h -73 -94 0
h -73 -95 0
h 73 72 74 75 82 83 71 66 84 86 89 92 31 93 96 97 99 100 32 98 94 95 0
h -74 -72 0
h -74 -73 0
h -74 -75 0
h -74 -78 0
h -74 -79 0
h -74 -82 0
h -74 -71 0
h -74 -66 0
h -74 -84 0
h -74 -87 0
h -74 -88 0
h -74 -91 0
h -74 -31 0
h -74 -32 0
h -74 -98 0
h -74 -99 0
h 74 72 73 75 78 79 82 71 66 84 87 88 91 31 32 98 99 0
h -75 -70 0
h -75 -72 0
h -75 -73 0
h -75 -74 0
h -75 -76 0
h -75 -77 0
h -75 -78 0
h -75 -79 0
h -75 -82 0
h -75 -83 0
h -75 -71 0
h -75 -84 0
h -75 -91 0
h -75 -92 0
h -75 -31 0
h -75 -32 0
h 75 70 72 73 74 76 77 78 79 82 83 71 84 91 92 31 32 0
h -76 -72 0
h -76 -75 0
h -76 -77 0
h -76 -82 0
h -76 -83 0
h -76 -71 0
h -76 -66 0
h -76 -50 0
h -76 -84 0
h -76 -86 0
h -76 -31 0
h -76 -32 0
h 76 72 75 77 82 83 71 66 50 84 86 31 32 0
h -77 -75 0
h -77 -76 0
h -77 -71 0
h -77 -31 0
h -77 -32 0
h -77 -58 0
h 77 75 76 71 31 32 58 0
h -78 -72 0
h -78 -74 0
h -78 -75 0
h -78 -71 0
h -78 -32 0
h 78 72 74 75 71 32 0
h -79 -72 0
h -79 -74 0
h -79 -75 0
h -79 -71 0
h -79 -84 0
h -79 -91 0
h -79 -31 0
h -79 -100 0
h 79 72 74 75 71 84 91 31 100 0
h -80 -72 0
h -80 -71 0
h -80 -66 0
h -80 -31 0
h 80 72 71 66 31 0
h -82 -72 0
h -82 -73 0
h -82 -74 0
h -82 -75 0
h -82 -76 0
h -82 -71 0
h -82 -84 0
h -82 -31 0
h -82 -32 0
h 82 72 73 74 75 76 71 84 31 32 0
h -83 -73 0
h -83 -75 0
h -83 -76 0
h -83 -71 0
h -83 -31 0
h -83 -84 0
h -83 -100 0
h -83 -87 0
h 83 73 75 76 71 31 84 100 87 0
h -84 -66 0
h -84 -73 0
h -84 -74 0
h -84 -75 0
h -84 -76 0
h -84 -79 0
h -84 -82 0
h -84 -86 0
h -84 -87 0
h -84 -88 0
h -84 -89 0
h -84 -72 0
h -84 -31 0
h -84 -99 0
h -84 -83 0
h -84 -96 0
h -84 -97 0
h -84 -100 0
h -84 -94 0
h -84 -62 0
h -84 -59 0
h -84 -81 0
h -84 -101 0
h 84 66 73 74 75 76 79 82 86 87 88 89 72 31 99 83 96 97 100 94 62 59 81 101 0
h -81 -86 0
h -81 -97 0
h -81 -84 0
h 81 86 97 84 0
h -85 -66 0
h -85 -58 0
h -85 -8 0
h -85 -65 0
h -85 -72 0
h 85 66 58 8 65 72 0
h -86 -66 0
h -86 -73 0
h -86 -76 0
h -86 -84 0
h -86 -89 0
h -86 -72 0
h -86 -31 0
h -86 -93 0
h -86 -97 0
h -86 -100 0
h -86 -59 0
h -86 -81 0
h -86 -101 0
h -86 -61 0
h 86 66 73 76 84 89 72 31 93 97 100 59 81 101 61 0
h -61 -101 0
h -61 -86 0
h 61 101 86 0
h -87 -74 0
h -87 -84 0
h -87 -72 0
h -87 -98 0
h -87 -83 0
h 87 74 84 72 98 83 0
h -88 -66 0
h -88 -74 0
h -88 -84 0
h -88 -89 0
h -88 -72 0
h 88 66 74 84 89 72 0
h -89 -66 0
h -89 -73 0
h -89 -84 0
h -89 -86 0
h -89 -88 0
h -89 -72 0
h 89 66 73 84 86 88 72 0
h -90 -66 0
h -90 -70 0
h -90 -91 0
h -90 -72 0
h -90 -99 0
h 90 66 70 91 72 99 0
h -91 -74 0
h -91 -75 0
h -91 -79 0
h -91 -90 0
h -91 -72 0
h -91 -32 0
h -91 -98 0
h -91 -100 0
h 91 74 75 79 90 72 32 98 100 0
h -92 -73 0
h -92 -75 0
h -92 -72 0
h 92 73 75 72 0
h -93 -66 0
h -93 -31 0
h -93 -86 0
h -93 -94 0
h -93 -99 0
h -93 -73 0
h -93 -102 0
h 93 66 31 86 94 99 73 102 0
h -94 -84 0
h -94 -93 0
h -94 -95 0
h -94 -96 0
h -94 -73 0
h -94 -101 0
h -94 -102 0
h 94 84 93 95 96 73 101 102 0
h -95 -94 0
h -95 -73 0
h -95 -102 0
h 95 94 73 102 0
h -96 -66 0
h -96 -84 0
h -96 -94 0
h -96 -97 0
h -96 -100 0
h -96 -73 0
h 96 66 84 94 97 100 73 0
h -97 -66 0
h -97 -84 0
h -97 -86 0
h -97 -96 0
h -97 -73 0
h -97 -81 0
h 97 66 84 86 96 73 81 0
h -98 -74 0
h -98 -100 0
h -98 -73 0
h -98 -87 0
h -98 -91 0
h 98 74 100 73 87 91 0
h -99 -66 0
h -99 -31 0
h -99 -74 0
h -99 -84 0
h -99 -93 0
h -99 -100 0
h -99 -73 0
h -99 -90 0
h -99 -59 0
h -99 -62 0
h -99 -60 0
h -99 -63 0
h 99 66 31 74 84 93 100 73 90 59 62 60 63 0
h -100 -66 0
h -100 -83 0
h -100 -84 0
h -100 -86 0
h -100 -96 0
h -100 -98 0
h -100 -99 0
h -100 -73 0
h -100 -62 0
h -100 -79 0
h -100 -101 0
h -100 -91 0
h 100 66 83 84 86 96 98 99 73 62 79 101 91 0
h -101 -86 0
h -101 -94 0
h -101 -100 0
h -101 -84 0
h -101 -61 0
h 101 86 94 100 84 61 0
h -102 -94 0
h -102 -93 0
h -102 -95 0
h 102 94 93 95 0
h -103 -104 0
h -103 -67 0
h 103 104 67 0
h -104 -103 0
h -104 -67 0
h 104 103 67 0
1 -1 0
1 -2 0
1 -3 0
1 -4 0
1 -5 0
1 -6 0
1 -7 0
1 -8 0
1 -9 0
1 -10 0
1 -11 0
1 -12 0
1 -13 0
1 -14 0
1 -15 0
1 -16 0
1 -17 0
1 -18 0
1 -19 0
1 -20 0
1 -21 0
1 -22 0
1 -23 0
1 -24 0
1 -25 0
1 -26 0
1 -27 0
1 -28 0
1 -30 0
1 -31 0
1 -32 0
1 -33 0
1 -34 0
1 -35 0
1 -36 0
1 -37 0
1 -38 0
1 -39 0
1 -40 0
1 -41 0
1 -42 0
1 -43 0
1 -44 0
1 -45 0
1 -46 0
1 -47 0
1 -48 0
1 -49 0
1 -50 0
1 -51 0
1 -52 0
1 -53 0
1 -54 0
1 -55 0
1 -56 0
1 -57 0
1 -58 0
1 -59 0
1 -60 0
1 -62 0
1 -63 0
1 -64 0
1 -65 0
1 -66 0
1 -29 0
1 -67 0
1 -68 0
1 -69 0
1 -70 0
1 -71 0
1 -72 0
1 -73 0
1 -74 0
1 -75 0
1 -76 0
1 -77 0
1 -78 0
1 -79 0
1 -80 0
1 -82 0
1 -83 0
1 -84 0
1 -81 0
1 -85 0
1 -86 0
1 -61 0
1 -87 0
1 -88 0
1 -89 0
1 -90 0
1 -91 0
1 -92 0
1 -93 0
1 -94 0
1 -95 0
1 -96 0
1 -97 0
1 -98 0
1 -99 0
1 -100 0
1 -101 0
1 -102 0
1 -103 0
1 -104 0
